p cnf 39 104
a 9 3 0
e 1 2 4 5 6 7 8 10 11 12 13 14 15 16 17 18 19 20 21 22 23 24 25 26 27 28 29 30 31 32 33 34 35 36 37 38 39 0
2 1 0
2 -1 0
5 6 -7 0
-5 -6 -7 0
5 -6 7 0
-5 6 7 0
-4 7 -8 0
4 -7 -8 0
-4 -7 8 0
4 7 8 0
3 8 -9 0
-3 -8 -9 0
3 -8 9 0
-3 8 9 0
10 -9 0
10 7 0
9 -7 -10 0
-2 10 -11 0
2 -10 -11 0
-2 -10 11 0
2 10 11 0
-12 6 0
-12 -1 0
-6 1 12 0
-13 -3 0
-13 12 0
3 -12 13 0
-14 -13 0
-14 -3 0
13 3 14 0
15 -14 0
15 -12 0
14 12 -15 0
16 -13 0
16 -5 0
13 5 -16 0
-1 6 -17 0
1 -6 -17 0
-1 -6 17 0
1 6 17 0
-16 -17 -18 0
16 17 -18 0
-16 17 18 0
16 -17 18 0
19 1 0
19 -6 0
-1 6 -19 0
20 -18 0
20 -19 0
18 19 -20 0
-22 21 0
-22 -21 0
-23 20 0
-23 -22 0
-20 22 23 0
-25 24 0
-25 -12 0
-24 12 25 0
26 23 0
26 25 0
-23 -25 -26 0
-27 6 -28 0
27 -6 -28 0
-27 -6 28 0
27 6 28 0
-29 -26 0
-29 28 0
26 -28 29 0
-30 15 0
-30 -29 0
-15 29 30 0
31 -5 0
31 14 0
5 -14 -31 0
33 32 0
33 27 0
-32 -27 -33 0
-34 -31 0
-34 33 0
31 -33 34 0
5 -35 -36 0
-5 35 -36 0
5 35 36 0
-5 -35 36 0
-37 -34 0
-37 -36 0
34 36 37 0
-38 -30 0
-38 -37 0
30 37 38 0
11 -38 -39 0
-11 38 -39 0
11 38 39 0
-11 -38 39 0
14 -21 -37 -25 -1 33 0
18 10 2 -6 -24 0
27 -3 -8 37 0
-15 3 32 25 0
7 -26 -25 0
19 -5 -39 -34 -27 -15 0
-2 -34 -13 30 19 21 0
8 -2 -18 28 38 0
32 11 5 -21 0
39 0
